N = 60;
W = 100;
H = 100;
ItemWidth = [ 53, 1, 88, 90, 89, 27, 57, 89, 68, 63, 64, 77, 78, 51, 100, 61, 94, 79, 62, 98, 87, 24, 12, 99, 85, 52, 64, 63, 68, 30, 100, 18, 74, 79, 71, 70, 56, 11, 32, 95, 65, 82, 78, 99, 62, 58, 90, 79, 70, 76, 71, 60, 55, 85, 47, 45, 46, 100, 31, 7 ];
ItemHeight = [ 99, 99, 98, 98, 98, 97, 95, 94, 94, 93, 92, 92, 92, 90, 89, 88, 87, 86, 86, 86, 85, 85, 85, 83, 83, 81, 79, 78, 77, 77, 76, 75, 74, 74, 74, 70, 70, 69, 69, 69, 69, 66, 65, 65, 65, 65, 64, 63, 55, 55, 54, 53, 52, 47, 46, 39, 35, 18, 14, 11 ];
